%chk=octa1.chk
# td=(50-50,nstates=3) b3lyp/6-31g* geom=connectivity

Title Card Required

0 1
 C                 -4.61988322   -0.20467836    0.00000000
 H                 -4.08671947   -1.13238328    0.00000000
 H                 -5.68988322   -0.20467836    0.00000000
 C                 -3.94460891    0.97029894    0.00000000
 H                 -4.47777266    1.89800386    0.00000000
 C                 -2.40460891    0.97029894    0.00000000
 H                 -1.87144516    0.04259402    0.00000000
 C                 -1.72236551    2.14124342   -0.00000000
 H                 -2.25000798    3.07209971    0.00000000
 C                 -0.18239269    2.13209366   -0.00000000
 H                  0.34524978    1.20123738   -0.00000000
 C                  0.50679572    3.29896400   -0.00000000
 H                 -0.01530685    4.23293879    0.00000000
 C                  2.04668699    3.28066481   -0.00000000
 H                  2.56878956    2.34669002   -0.00000000
 C                  2.74279608    4.44341980   -0.00000000
 H                  2.22625185    5.38048013    0.00000000
 H                  3.81262611    4.42434880   -0.00000000

 1 2 1.0 3 1.0 4 2.0
 2
 3
 4 5 1.0 6 1.0
 5
 6 7 1.0 8 2.0
 7
 8 9 1.0 10 1.0
 9
 10 11 1.0 12 2.0
 11
 12 13 1.0 14 1.0
 13
 14 15 1.0 16 2.0
 15
 16 17 1.0 18 1.0
 17
 18

